100
128
15
45
16
51
7
7
10
22
15
7
7
51
3
48
46
30
5
56
36
31
44
17
35
41
33
29
43
34
29
64
29
35
40
13
24
28
32
51
22
29
1
25
24
14
22
32
39
27
30
54
33
39
60
43
25
27
50
23
47
47
34
60
21
1
16
53
30
45
42
43
42
53
8
26
41
64
64
29
28
25
2
54
47
44
52
16
47
22
22
37
37
30
59
60
6
57
16
47
51
29